k = 80;
b = 40;
AtomicConstraints =  [|
	2, 1|
	2, 8|
	2, 9|
	2, 10|
	2, 11|
	2, 12|
	2, 13|
	2, 14|
	2, 15|
	2, 16|
	2, 17|
	2, 21|
	2, 22|
	2, 23|
	2, 24|
	2, 25|
	3, 1|
	3, 2|
	3, 8|
	3, 9|
	3, 10|
	3, 11|
	3, 12|
	3, 13|
	3, 14|
	3, 15|
	3, 16|
	3, 17|
	3, 21|
	3, 22|
	3, 23|
	3, 24|
	3, 25|
	4, 1|
	4, 2|
	4, 8|
	4, 9|
	4, 10|
	4, 11|
	4, 12|
	4, 13|
	4, 14|
	4, 15|
	4, 16|
	4, 17|
	4, 21|
	4, 22|
	4, 23|
	4, 24|
	4, 25|
	5, 1|
	5, 8|
	5, 9|
	5, 10|
	5, 11|
	5, 12|
	5, 13|
	5, 14|
	5, 15|
	5, 16|
	5, 17|
	6, 1|
	6, 5|
	6, 8|
	6, 9|
	6, 10|
	6, 11|
	6, 12|
	6, 13|
	6, 14|
	6, 15|
	6, 16|
	6, 17|
	7, 1|
	7, 5|
	7, 8|
	7, 9|
	7, 10|
	7, 11|
	7, 12|
	7, 13|
	7, 14|
	7, 15|
	7, 16|
	7, 17|
	8, 10|
	9, 10|
	11, 1|
	11, 8|
	11, 9|
	11, 10|
	11, 14|
	11, 16|
	11, 17|
	12, 1|
	12, 8|
	12, 9|
	12, 10|
	12, 11|
	12, 14|
	12, 15|
	12, 16|
	12, 17|
	13, 1|
	13, 8|
	13, 9|
	13, 10|
	13, 11|
	13, 12|
	13, 14|
	13, 15|
	13, 16|
	13, 17|
	14, 1|
	14, 8|
	14, 9|
	14, 10|
	14, 16|
	14, 17|
	15, 1|
	15, 8|
	15, 9|
	15, 10|
	15, 14|
	15, 16|
	15, 17|
	16, 1|
	16, 8|
	16, 9|
	16, 10|
	17, 1|
	17, 8|
	17, 9|
	17, 10|
	17, 16|
	46, 1|
	46, 8|
	46, 9|
	46, 10|
	46, 61|
	46, 18|
	46, 19|
	46, 20|
	46, 21|
	46, 22|
	46, 23|
	46, 24|
	46, 25|
	58, 1|
	58, 8|
	58, 9|
	58, 10|
	58, 61|
	58, 18|
	58, 19|
	58, 20|
	58, 21|
	58, 22|
	58, 23|
	58, 24|
	58, 25|
	57, 1|
	57, 8|
	57, 9|
	57, 10|
	57, 46|
	57, 58|
	57, 61|
	57, 18|
	57, 19|
	57, 20|
	57, 21|
	57, 22|
	57, 23|
	57, 24|
	57, 25|
	61, 1|
	61, 8|
	61, 9|
	61, 10|
	61, 18|
	61, 19|
	61, 20|
	61, 21|
	61, 22|
	61, 23|
	61, 24|
	61, 25|
	18, 19|
	20, 19|
	22, 21|
	22, 23|
	22, 24|
	22, 25|
	23, 21|
	23, 24|
	25, 21|
	25, 24|
	26, 28|
	27, 26|
	27, 28|
	29, 8|
	29, 9|
	29, 10|
	29, 18|
	29, 19|
	29, 20|
	29, 21|
	29, 22|
	29, 23|
	29, 24|
	29, 25|
	29, 26|
	29, 27|
	29, 28|
	30, 8|
	30, 9|
	30, 10|
	30, 18|
	30, 19|
	30, 20|
	30, 21|
	30, 22|
	30, 23|
	30, 24|
	30, 25|
	30, 26|
	30, 27|
	30, 28|
	32, 18|
	32, 19|
	32, 20|
	32, 26|
	32, 27|
	32, 28|
	32, 31|
	32, 36|
	31, 18|
	31, 19|
	31, 20|
	31, 26|
	31, 27|
	31, 28|
	33, 18|
	33, 19|
	33, 20|
	33, 26|
	33, 27|
	33, 28|
	33, 31|
	33, 32|
	33, 34|
	33, 36|
	34, 18|
	34, 19|
	34, 20|
	34, 26|
	34, 27|
	34, 28|
	34, 31|
	34, 36|
	35, 18|
	35, 19|
	35, 20|
	35, 26|
	35, 27|
	35, 28|
	35, 31|
	35, 32|
	35, 34|
	35, 36|
	36, 18|
	36, 19|
	36, 20|
	36, 26|
	36, 27|
	36, 28|
	37, 19|
	37, 26|
	37, 27|
	37, 28|
	37, 40|
	37, 41|
	37, 42|
	37, 43|
	37, 44|
	38, 18|
	38, 19|
	38, 20|
	38, 26|
	38, 27|
	38, 28|
	38, 37|
	38, 40|
	38, 41|
	38, 42|
	38, 43|
	38, 44|
	39, 18|
	39, 19|
	39, 20|
	39, 26|
	39, 27|
	39, 28|
	39, 37|
	39, 38|
	39, 40|
	39, 41|
	39, 42|
	39, 43|
	39, 44|
	41, 40|
	42, 40|
	42, 41|
	43, 40|
	43, 41|
	43, 42|
	44, 40|
	44, 41|
	44, 42|
	44, 43|
	52, 69|
	52, 65|
	52, 68|
	52, 67|
	54, 66|
	54, 69|
	54, 51|
	55, 66|
	55, 69|
	55, 65|
	55, 51|
	56, 66|
	56, 52|
	56, 69|
	56, 65|
	56, 68|
	56, 51|
	53, 66|
	53, 52|
	53, 69|
	53, 65|
	53, 68|
	53, 67|
	53, 51|
	45, 66|
	45, 52|
	45, 69|
	45, 65|
	45, 68|
	45, 67|
	45, 51|
	59, 66|
	59, 52|
	59, 69|
	59, 65|
	59, 68|
	59, 67|
	59, 51|
	77, 66|
	77, 54|
	77, 55|
	77, 56|
	77, 69|
	77, 51|
	78, 66|
	78, 54|
	78, 55|
	78, 56|
	78, 53|
	78, 69|
	78, 65|
	78, 51|
	76, 66|
	76, 52|
	76, 54|
	76, 55|
	76, 56|
	76, 53|
	76, 45|
	76, 69|
	76, 65|
	76, 68|
	76, 51|
	80, 66|
	80, 52|
	80, 55|
	80, 56|
	80, 53|
	80, 45|
	80, 59|
	80, 69|
	80, 65|
	80, 68|
	80, 67|
	80, 51|
	79, 66|
	79, 52|
	79, 56|
	79, 53|
	79, 45|
	79, 59|
	79, 69|
	79, 65|
	79, 68|
	79, 67|
	79, 51|
	75, 66|
	75, 52|
	75, 53|
	75, 45|
	75, 59|
	75, 69|
	75, 65|
	75, 68|
	75, 67|
	75, 51|
	74, 66|
	74, 54|
	74, 55|
	74, 56|
	74, 77|
	74, 78|
	74, 76|
	74, 69|
	74, 51|
	73, 66|
	73, 54|
	73, 55|
	73, 56|
	73, 53|
	73, 77|
	73, 78|
	73, 76|
	73, 80|
	73, 69|
	73, 65|
	73, 51|
	62, 66|
	62, 52|
	62, 54|
	62, 55|
	62, 56|
	62, 53|
	62, 45|
	62, 77|
	62, 78|
	62, 76|
	62, 80|
	62, 79|
	62, 69|
	62, 65|
	62, 68|
	62, 51|
	64, 66|
	64, 52|
	64, 54|
	64, 55|
	64, 56|
	64, 53|
	64, 45|
	64, 59|
	64, 77|
	64, 78|
	64, 76|
	64, 80|
	64, 79|
	64, 75|
	64, 69|
	64, 65|
	64, 68|
	64, 67|
	64, 51|
	63, 66|
	63, 52|
	63, 54|
	63, 55|
	63, 56|
	63, 53|
	63, 45|
	63, 59|
	63, 77|
	63, 78|
	63, 76|
	63, 80|
	63, 79|
	63, 75|
	63, 69|
	63, 65|
	63, 68|
	63, 67|
	63, 51|
	72, 66|
	72, 52|
	72, 54|
	72, 55|
	72, 56|
	72, 53|
	72, 45|
	72, 59|
	72, 77|
	72, 78|
	72, 76|
	72, 80|
	72, 79|
	72, 75|
	72, 69|
	72, 65|
	72, 68|
	72, 67|
	72, 51|
	49, 66|
	49, 52|
	49, 54|
	49, 55|
	49, 56|
	49, 53|
	49, 45|
	49, 59|
	49, 77|
	49, 78|
	49, 76|
	49, 80|
	49, 79|
	49, 75|
	49, 64|
	49, 63|
	49, 69|
	49, 72|
	49, 65|
	49, 68|
	49, 67|
	49, 51|
	60, 66|
	60, 54|
	60, 55|
	60, 56|
	60, 77|
	60, 78|
	60, 76|
	60, 74|
	60, 73|
	60, 62|
	60, 69|
	60, 51|
	70, 66|
	70, 52|
	70, 54|
	70, 55|
	70, 56|
	70, 53|
	70, 45|
	70, 59|
	70, 77|
	70, 78|
	70, 76|
	70, 80|
	70, 79|
	70, 75|
	70, 74|
	70, 73|
	70, 62|
	70, 64|
	70, 63|
	70, 69|
	70, 72|
	70, 49|
	70, 65|
	70, 68|
	70, 67|
	70, 51|
	48, 66|
	48, 54|
	48, 55|
	48, 56|
	48, 77|
	48, 78|
	48, 74|
	48, 73|
	48, 62|
	48, 69|
	48, 60|
	48, 51|
	47, 66|
	47, 54|
	47, 55|
	47, 56|
	47, 53|
	47, 77|
	47, 78|
	47, 76|
	47, 80|
	47, 74|
	47, 73|
	47, 62|
	47, 64|
	47, 69|
	47, 60|
	47, 65|
	47, 51|
	50, 66|
	50, 52|
	50, 54|
	50, 55|
	50, 56|
	50, 53|
	50, 45|
	50, 77|
	50, 78|
	50, 76|
	50, 80|
	50, 79|
	50, 74|
	50, 73|
	50, 62|
	50, 64|
	50, 63|
	50, 69|
	50, 60|
	50, 65|
	50, 70|
	50, 68|
	50, 51|
	71, 66|
	71, 52|
	71, 54|
	71, 55|
	71, 56|
	71, 53|
	71, 45|
	71, 59|
	71, 77|
	71, 78|
	71, 76|
	71, 80|
	71, 79|
	71, 75|
	71, 74|
	71, 73|
	71, 62|
	71, 64|
	71, 63|
	71, 69|
	71, 72|
	71, 49|
	71, 65|
	71, 70|
	71, 68|
	71, 67|
	71, 51|
	51, 66|
	51, 69|
	51, 65|
	51, 68|];
DisjunctiveConstraints =  [|
2, 22, 2, 66|
	2, 24, 2, 68|
	2, 69, 2, 25|
	3, 22, 3, 66|
	3, 24, 3, 68|
	3, 69, 3, 25|
	4, 23, 4, 67|
	4, 65, 4, 21|
	5, 13, 5, 57|
	5, 14, 58, 5|
	5, 15, 59, 5|
	5, 17, 5, 61|
	5, 52, 5, 8|
	5, 54, 5, 10|
	5, 55, 5, 11|
	5, 56, 5, 12|
	5, 60, 5, 16|
	6, 13, 6, 57|
	6, 14, 58, 6|
	6, 15, 59, 6|
	6, 17, 6, 61|
	6, 52, 6, 8|
	6, 54, 6, 10|
	6, 55, 6, 11|
	6, 56, 6, 12|
	6, 60, 6, 16|
	7, 14, 7, 58|
	7, 53, 7, 9|
	7, 59, 7, 15|
	11, 9, 53, 11|
	11, 52, 11, 8|
	11, 54, 11, 10|
	12, 9, 53, 12|
	12, 52, 12, 8|
	12, 54, 12, 10|
	12, 60, 12, 16|
	13, 17, 13, 61|
	13, 52, 13, 8|
	13, 54, 13, 10|
	13, 60, 13, 16|
	14, 53, 14, 9|
	15, 53, 15, 9|
	16, 9, 53, 16|
	16, 52, 16, 8|
	16, 54, 16, 10|
	17, 9, 53, 17|
	17, 52, 17, 8|
	17, 54, 17, 10|
	46, 64, 46, 20|
	46, 63, 46, 19|
	61, 64, 61, 20|
	61, 63, 61, 19|
	55, 56, 55, 54|
	56, 53, 56, 55|
	53, 45, 53, 56|
	45, 59, 45, 53|
	78, 76, 78, 77|
	76, 80, 76, 78|
	80, 79, 80, 76|
	79, 75, 79, 80|
	73, 62, 73, 74|
	73, 69, 25, 73|
	62, 64, 62, 73|
	62, 65, 21, 62|
	64, 63, 64, 62|
	64, 68, 24, 64|
	63, 72, 63, 64|
	63, 67, 23, 63|
	69, 65, 69, 66|
	60, 55, 11, 60|
	60, 78, 34, 60|
	70, 59, 15, 70|
	70, 75, 31, 70|
	70, 67, 23, 70|
	48, 22, 48, 66|
	48, 55, 11, 48|
	48, 78, 34, 48|
	47, 56, 12, 47|
	47, 76, 32, 47|
	47, 69, 25, 47|
	47, 50, 47, 48|
	47, 51, 7, 47|
	65, 68, 65, 69|
	50, 53, 9, 50|
	50, 80, 36, 50|
	50, 69, 50, 25|
	50, 65, 21, 50|
	71, 24, 71, 68|
	71, 59, 15, 71|
	71, 75, 31, 71|
	71, 67, 23, 71|
	68, 67, 68, 65|];
SoftAtomicConstraints =  [|
4, 3|
7, 6|
9, 8|
32, 9|
15, 11|
46, 14|
61, 16|
18, 20|
21, 24|
23, 25|
42, 26|
41, 28|
29, 30|
34, 32|
35, 33|
37, 34|
39, 35|
31, 36|
59, 45|
58, 46|
50, 47|
47, 48|
45, 53|
55, 54|
56, 55|
53, 56|
70, 60|
30, 61|
64, 62|
72, 63|
63, 64|
68, 65|
69, 66|
67, 68|
65, 69|
62, 73|
73, 74|
80, 76|
78, 77|
76, 78|
75, 79|
79, 80|];
DirectSuccessors =  [];